&control
   prefix = 'diamond'
   calculation = 'scf'
   restart_mode = 'from_scratch'
   wf_collect = .true.
   tstress = .true.
   tprnfor = .true.
   outdir = './'
   wfcdir = './'
   pseudo_dir = './'
/
&system
   ibrav = 0
   celldm(1) = 26.594331775232
   nat = 511
   ntyp = 1
   ecutwfc = 60.0
   tot_charge = -2
/
&electrons
   electron_maxstep = 100
   conv_thr = 1.0d-10
   mixing_mode = 'plain'
   mixing_beta = 0.7
   mixing_ndim = 8
   diagonalization = 'david'
   diago_david_ndim = 4
   diago_full_acc = .true.
/
&IONS
 ion_dynamics='bfgs',
/
&CELL
 cell_dynamics='bfgs'
 press=0.0,
/
CELL_PARAMETERS alat
       1.000000000   0.000000000   0.000000000
       0.000000000   1.000000000   0.000000000
       0.000000000   0.000000000   1.000000000
ATOMIC_SPECIES
  C  28.086  C.UPF
ATOMIC_POSITIONS crystal
C 0.000000 0.000000 0.000000
C 0.062500 0.062500 0.062500
C 0.125000 0.125000 0.000000
C 0.000000 0.125000 0.125000
C 0.125000 0.000000 0.125000
C 0.187500 0.062500 0.187500
C 0.187500 0.187500 0.062500
C 0.062500 0.187500 0.187500
C 0.000000 0.000000 0.250000
C 0.062500 0.062500 0.312500
C 0.125000 0.125000 0.250000
C 0.000000 0.125000 0.375000
C 0.125000 0.000000 0.375000
C 0.187500 0.062500 0.437500
C 0.187500 0.187500 0.312500
C 0.062500 0.187500 0.437500
C 0.000000 0.000000 0.500000
C 0.062500 0.062500 0.562500
C 0.125000 0.125000 0.500000
C 0.000000 0.125000 0.625000
C 0.125000 0.000000 0.625000
C 0.187500 0.062500 0.687500
C 0.187500 0.187500 0.562500
C 0.062500 0.187500 0.687500
C 0.000000 0.000000 0.750000
C 0.062500 0.062500 0.812500
C 0.125000 0.125000 0.750000
C 0.000000 0.125000 0.875000
C 0.125000 0.000000 0.875000
C 0.187500 0.062500 0.937500
C 0.187500 0.187500 0.812500
C 0.062500 0.187500 0.937500
C 0.000000 0.250000 0.000000
C 0.062500 0.312500 0.062500
C 0.125000 0.375000 0.000000
C 0.000000 0.375000 0.125000
C 0.125000 0.250000 0.125000
C 0.187500 0.312500 0.187500
C 0.187500 0.437500 0.062500
C 0.062500 0.437500 0.187500
C 0.000000 0.250000 0.250000
C 0.062500 0.312500 0.312500
C 0.125000 0.375000 0.250000
C 0.000000 0.375000 0.375000
C 0.125000 0.250000 0.375000
C 0.187500 0.312500 0.437500
C 0.187500 0.437500 0.312500
C 0.062500 0.437500 0.437500
C 0.000000 0.250000 0.500000
C 0.062500 0.312500 0.562500
C 0.125000 0.375000 0.500000
C 0.000000 0.375000 0.625000
C 0.125000 0.250000 0.625000
C 0.187500 0.312500 0.687500
C 0.187500 0.437500 0.562500
C 0.062500 0.437500 0.687500
C 0.000000 0.250000 0.750000
C 0.062500 0.312500 0.812500
C 0.125000 0.375000 0.750000
C 0.000000 0.375000 0.875000
C 0.125000 0.250000 0.875000
C 0.187500 0.312500 0.937500
C 0.187500 0.437500 0.812500
C 0.062500 0.437500 0.937500
C 0.000000 0.500000 0.000000
C 0.062500 0.562500 0.062500
C 0.125000 0.625000 0.000000
C 0.000000 0.625000 0.125000
C 0.125000 0.500000 0.125000
C 0.187500 0.562500 0.187500
C 0.187500 0.687500 0.062500
C 0.062500 0.687500 0.187500
C 0.000000 0.500000 0.250000
C 0.062500 0.562500 0.312500
C 0.125000 0.625000 0.250000
C 0.000000 0.625000 0.375000
C 0.125000 0.500000 0.375000
C 0.187500 0.562500 0.437500
C 0.187500 0.687500 0.312500
C 0.062500 0.687500 0.437500
C 0.000000 0.500000 0.500000
C 0.062500 0.562500 0.562500
C 0.125000 0.625000 0.500000
C 0.000000 0.625000 0.625000
C 0.125000 0.500000 0.625000
C 0.187500 0.562500 0.687500
C 0.187500 0.687500 0.562500
C 0.062500 0.687500 0.687500
C 0.000000 0.500000 0.750000
C 0.062500 0.562500 0.812500
C 0.125000 0.625000 0.750000
C 0.000000 0.625000 0.875000
C 0.125000 0.500000 0.875000
C 0.187500 0.562500 0.937500
C 0.187500 0.687500 0.812500
C 0.062500 0.687500 0.937500
C 0.000000 0.750000 0.000000
C 0.062500 0.812500 0.062500
C 0.125000 0.875000 0.000000
C 0.000000 0.875000 0.125000
C 0.125000 0.750000 0.125000
C 0.187500 0.812500 0.187500
C 0.187500 0.937500 0.062500
C 0.062500 0.937500 0.187500
C 0.000000 0.750000 0.250000
C 0.062500 0.812500 0.312500
C 0.125000 0.875000 0.250000
C 0.000000 0.875000 0.375000
C 0.125000 0.750000 0.375000
C 0.187500 0.812500 0.437500
C 0.187500 0.937500 0.312500
C 0.062500 0.937500 0.437500
C 0.000000 0.750000 0.500000
C 0.062500 0.812500 0.562500
C 0.125000 0.875000 0.500000
C 0.000000 0.875000 0.625000
C 0.125000 0.750000 0.625000
C 0.187500 0.812500 0.687500
C 0.187500 0.937500 0.562500
C 0.062500 0.937500 0.687500
C 0.000000 0.750000 0.750000
C 0.062500 0.812500 0.812500
C 0.125000 0.875000 0.750000
C 0.000000 0.875000 0.875000
C 0.125000 0.750000 0.875000
C 0.187500 0.812500 0.937500
C 0.187500 0.937500 0.812500
C 0.062500 0.937500 0.937500
C 0.250000 0.000000 0.000000
C 0.312500 0.062500 0.062500
C 0.375000 0.125000 0.000000
C 0.250000 0.125000 0.125000
C 0.375000 0.000000 0.125000
C 0.437500 0.062500 0.187500
C 0.437500 0.187500 0.062500
C 0.312500 0.187500 0.187500
C 0.250000 0.000000 0.250000
C 0.312500 0.062500 0.312500
C 0.375000 0.125000 0.250000
C 0.250000 0.125000 0.375000
C 0.375000 0.000000 0.375000
C 0.437500 0.062500 0.437500
C 0.437500 0.187500 0.312500
C 0.312500 0.187500 0.437500
C 0.250000 0.000000 0.500000
C 0.312500 0.062500 0.562500
C 0.375000 0.125000 0.500000
C 0.250000 0.125000 0.625000
C 0.375000 0.000000 0.625000
C 0.437500 0.062500 0.687500
C 0.437500 0.187500 0.562500
C 0.312500 0.187500 0.687500
C 0.250000 0.000000 0.750000
C 0.312500 0.062500 0.812500
C 0.375000 0.125000 0.750000
C 0.250000 0.125000 0.875000
C 0.375000 0.000000 0.875000
C 0.437500 0.062500 0.937500
C 0.437500 0.187500 0.812500
C 0.312500 0.187500 0.937500
C 0.250000 0.250000 0.000000
C 0.312500 0.312500 0.062500
C 0.375000 0.375000 0.000000
C 0.250000 0.375000 0.125000
C 0.375000 0.250000 0.125000
C 0.437500 0.312500 0.187500
C 0.437500 0.437500 0.062500
C 0.312500 0.437500 0.187500
C 0.250000 0.250000 0.250000
C 0.312500 0.312500 0.312500
C 0.375000 0.375000 0.250000
C 0.250000 0.375000 0.375000
C 0.375000 0.250000 0.375000
C 0.437500 0.312500 0.437500
C 0.437500 0.437500 0.312500
C 0.312500 0.437500 0.437500
C 0.250000 0.250000 0.500000
C 0.312500 0.312500 0.562500
C 0.375000 0.375000 0.500000
C 0.250000 0.375000 0.625000
C 0.375000 0.250000 0.625000
C 0.437500 0.312500 0.687500
C 0.437500 0.437500 0.562500
C 0.312500 0.437500 0.687500
C 0.250000 0.250000 0.750000
C 0.312500 0.312500 0.812500
C 0.375000 0.375000 0.750000
C 0.250000 0.375000 0.875000
C 0.375000 0.250000 0.875000
C 0.437500 0.312500 0.937500
C 0.437500 0.437500 0.812500
C 0.312500 0.437500 0.937500
C 0.250000 0.500000 0.000000
C 0.312500 0.562500 0.062500
C 0.375000 0.625000 0.000000
C 0.250000 0.625000 0.125000
C 0.375000 0.500000 0.125000
C 0.437500 0.562500 0.187500
C 0.437500 0.687500 0.062500
C 0.312500 0.687500 0.187500
C 0.250000 0.500000 0.250000
C 0.312500 0.562500 0.312500
C 0.375000 0.625000 0.250000
C 0.250000 0.625000 0.375000
C 0.375000 0.500000 0.375000
C 0.437500 0.562500 0.437500
C 0.437500 0.687500 0.312500
C 0.312500 0.687500 0.437500
C 0.250000 0.500000 0.500000
C 0.312500 0.562500 0.562500
C 0.375000 0.625000 0.500000
C 0.250000 0.625000 0.625000
C 0.375000 0.500000 0.625000
C 0.437500 0.562500 0.687500
C 0.437500 0.687500 0.562500
C 0.312500 0.687500 0.687500
C 0.250000 0.500000 0.750000
C 0.312500 0.562500 0.812500
C 0.375000 0.625000 0.750000
C 0.250000 0.625000 0.875000
C 0.375000 0.500000 0.875000
C 0.437500 0.562500 0.937500
C 0.437500 0.687500 0.812500
C 0.312500 0.687500 0.937500
C 0.250000 0.750000 0.000000
C 0.312500 0.812500 0.062500
C 0.375000 0.875000 0.000000
C 0.250000 0.875000 0.125000
C 0.375000 0.750000 0.125000
C 0.437500 0.812500 0.187500
C 0.437500 0.937500 0.062500
C 0.312500 0.937500 0.187500
C 0.250000 0.750000 0.250000
C 0.312500 0.812500 0.312500
C 0.375000 0.875000 0.250000
C 0.250000 0.875000 0.375000
C 0.375000 0.750000 0.375000
C 0.437500 0.812500 0.437500
C 0.437500 0.937500 0.312500
C 0.312500 0.937500 0.437500
C 0.250000 0.750000 0.500000
C 0.312500 0.812500 0.562500
C 0.375000 0.875000 0.500000
C 0.250000 0.875000 0.625000
C 0.375000 0.750000 0.625000
C 0.437500 0.812500 0.687500
C 0.437500 0.937500 0.562500
C 0.312500 0.937500 0.687500
C 0.250000 0.750000 0.750000
C 0.312500 0.812500 0.812500
C 0.375000 0.875000 0.750000
C 0.250000 0.875000 0.875000
C 0.375000 0.750000 0.875000
C 0.437500 0.812500 0.937500
C 0.437500 0.937500 0.812500
C 0.312500 0.937500 0.937500
C 0.500000 0.000000 0.000000
C 0.562500 0.062500 0.062500
C 0.625000 0.125000 0.000000
C 0.500000 0.125000 0.125000
C 0.625000 0.000000 0.125000
C 0.687500 0.062500 0.187500
C 0.687500 0.187500 0.062500
C 0.562500 0.187500 0.187500
C 0.500000 0.000000 0.250000
C 0.562500 0.062500 0.312500
C 0.625000 0.125000 0.250000
C 0.500000 0.125000 0.375000
C 0.625000 0.000000 0.375000
C 0.687500 0.062500 0.437500
C 0.687500 0.187500 0.312500
C 0.562500 0.187500 0.437500
C 0.500000 0.000000 0.500000
C 0.562500 0.062500 0.562500
C 0.625000 0.125000 0.500000
C 0.500000 0.125000 0.625000
C 0.625000 0.000000 0.625000
C 0.687500 0.062500 0.687500
C 0.687500 0.187500 0.562500
C 0.562500 0.187500 0.687500
C 0.500000 0.000000 0.750000
C 0.562500 0.062500 0.812500
C 0.625000 0.125000 0.750000
C 0.500000 0.125000 0.875000
C 0.625000 0.000000 0.875000
C 0.687500 0.062500 0.937500
C 0.687500 0.187500 0.812500
C 0.562500 0.187500 0.937500
C 0.500000 0.250000 0.000000
C 0.562500 0.312500 0.062500
C 0.625000 0.375000 0.000000
C 0.500000 0.375000 0.125000
C 0.625000 0.250000 0.125000
C 0.687500 0.312500 0.187500
C 0.687500 0.437500 0.062500
C 0.562500 0.437500 0.187500
C 0.500000 0.250000 0.250000
C 0.562500 0.312500 0.312500
C 0.625000 0.375000 0.250000
C 0.500000 0.375000 0.375000
C 0.625000 0.250000 0.375000
C 0.687500 0.312500 0.437500
C 0.687500 0.437500 0.312500
C 0.562500 0.437500 0.437500
C 0.500000 0.250000 0.500000
C 0.562500 0.312500 0.562500
C 0.625000 0.375000 0.500000
C 0.500000 0.375000 0.625000
C 0.625000 0.250000 0.625000
C 0.687500 0.312500 0.687500
C 0.687500 0.437500 0.562500
C 0.562500 0.437500 0.687500
C 0.500000 0.250000 0.750000
C 0.562500 0.312500 0.812500
C 0.625000 0.375000 0.750000
C 0.500000 0.375000 0.875000
C 0.625000 0.250000 0.875000
C 0.687500 0.312500 0.937500
C 0.687500 0.437500 0.812500
C 0.562500 0.437500 0.937500
C 0.500000 0.500000 0.000000
C 0.562500 0.562500 0.062500
C 0.625000 0.625000 0.000000
C 0.500000 0.625000 0.125000
C 0.625000 0.500000 0.125000
C 0.687500 0.562500 0.187500
C 0.687500 0.687500 0.062500
C 0.562500 0.687500 0.187500
C 0.500000 0.500000 0.250000
C 0.562500 0.562500 0.312500
C 0.625000 0.625000 0.250000
C 0.500000 0.625000 0.375000
C 0.625000 0.500000 0.375000
C 0.687500 0.562500 0.437500
C 0.687500 0.687500 0.312500
C 0.562500 0.687500 0.437500
C 0.562500 0.562500 0.562500
C 0.625000 0.625000 0.500000
C 0.500000 0.625000 0.625000
C 0.625000 0.500000 0.625000
C 0.687500 0.562500 0.687500
C 0.687500 0.687500 0.562500
C 0.562500 0.687500 0.687500
C 0.500000 0.500000 0.750000
C 0.562500 0.562500 0.812500
C 0.625000 0.625000 0.750000
C 0.500000 0.625000 0.875000
C 0.625000 0.500000 0.875000
C 0.687500 0.562500 0.937500
C 0.687500 0.687500 0.812500
C 0.562500 0.687500 0.937500
C 0.500000 0.750000 0.000000
C 0.562500 0.812500 0.062500
C 0.625000 0.875000 0.000000
C 0.500000 0.875000 0.125000
C 0.625000 0.750000 0.125000
C 0.687500 0.812500 0.187500
C 0.687500 0.937500 0.062500
C 0.562500 0.937500 0.187500
C 0.500000 0.750000 0.250000
C 0.562500 0.812500 0.312500
C 0.625000 0.875000 0.250000
C 0.500000 0.875000 0.375000
C 0.625000 0.750000 0.375000
C 0.687500 0.812500 0.437500
C 0.687500 0.937500 0.312500
C 0.562500 0.937500 0.437500
C 0.500000 0.750000 0.500000
C 0.562500 0.812500 0.562500
C 0.625000 0.875000 0.500000
C 0.500000 0.875000 0.625000
C 0.625000 0.750000 0.625000
C 0.687500 0.812500 0.687500
C 0.687500 0.937500 0.562500
C 0.562500 0.937500 0.687500
C 0.500000 0.750000 0.750000
C 0.562500 0.812500 0.812500
C 0.625000 0.875000 0.750000
C 0.500000 0.875000 0.875000
C 0.625000 0.750000 0.875000
C 0.687500 0.812500 0.937500
C 0.687500 0.937500 0.812500
C 0.562500 0.937500 0.937500
C 0.750000 0.000000 0.000000
C 0.812500 0.062500 0.062500
C 0.875000 0.125000 0.000000
C 0.750000 0.125000 0.125000
C 0.875000 0.000000 0.125000
C 0.937500 0.062500 0.187500
C 0.937500 0.187500 0.062500
C 0.812500 0.187500 0.187500
C 0.750000 0.000000 0.250000
C 0.812500 0.062500 0.312500
C 0.875000 0.125000 0.250000
C 0.750000 0.125000 0.375000
C 0.875000 0.000000 0.375000
C 0.937500 0.062500 0.437500
C 0.937500 0.187500 0.312500
C 0.812500 0.187500 0.437500
C 0.750000 0.000000 0.500000
C 0.812500 0.062500 0.562500
C 0.875000 0.125000 0.500000
C 0.750000 0.125000 0.625000
C 0.875000 0.000000 0.625000
C 0.937500 0.062500 0.687500
C 0.937500 0.187500 0.562500
C 0.812500 0.187500 0.687500
C 0.750000 0.000000 0.750000
C 0.812500 0.062500 0.812500
C 0.875000 0.125000 0.750000
C 0.750000 0.125000 0.875000
C 0.875000 0.000000 0.875000
C 0.937500 0.062500 0.937500
C 0.937500 0.187500 0.812500
C 0.812500 0.187500 0.937500
C 0.750000 0.250000 0.000000
C 0.812500 0.312500 0.062500
C 0.875000 0.375000 0.000000
C 0.750000 0.375000 0.125000
C 0.875000 0.250000 0.125000
C 0.937500 0.312500 0.187500
C 0.937500 0.437500 0.062500
C 0.812500 0.437500 0.187500
C 0.750000 0.250000 0.250000
C 0.812500 0.312500 0.312500
C 0.875000 0.375000 0.250000
C 0.750000 0.375000 0.375000
C 0.875000 0.250000 0.375000
C 0.937500 0.312500 0.437500
C 0.937500 0.437500 0.312500
C 0.812500 0.437500 0.437500
C 0.750000 0.250000 0.500000
C 0.812500 0.312500 0.562500
C 0.875000 0.375000 0.500000
C 0.750000 0.375000 0.625000
C 0.875000 0.250000 0.625000
C 0.937500 0.312500 0.687500
C 0.937500 0.437500 0.562500
C 0.812500 0.437500 0.687500
C 0.750000 0.250000 0.750000
C 0.812500 0.312500 0.812500
C 0.875000 0.375000 0.750000
C 0.750000 0.375000 0.875000
C 0.875000 0.250000 0.875000
C 0.937500 0.312500 0.937500
C 0.937500 0.437500 0.812500
C 0.812500 0.437500 0.937500
C 0.750000 0.500000 0.000000
C 0.812500 0.562500 0.062500
C 0.875000 0.625000 0.000000
C 0.750000 0.625000 0.125000
C 0.875000 0.500000 0.125000
C 0.937500 0.562500 0.187500
C 0.937500 0.687500 0.062500
C 0.812500 0.687500 0.187500
C 0.750000 0.500000 0.250000
C 0.812500 0.562500 0.312500
C 0.875000 0.625000 0.250000
C 0.750000 0.625000 0.375000
C 0.875000 0.500000 0.375000
C 0.937500 0.562500 0.437500
C 0.937500 0.687500 0.312500
C 0.812500 0.687500 0.437500
C 0.750000 0.500000 0.500000
C 0.812500 0.562500 0.562500
C 0.875000 0.625000 0.500000
C 0.750000 0.625000 0.625000
C 0.875000 0.500000 0.625000
C 0.937500 0.562500 0.687500
C 0.937500 0.687500 0.562500
C 0.812500 0.687500 0.687500
C 0.750000 0.500000 0.750000
C 0.812500 0.562500 0.812500
C 0.875000 0.625000 0.750000
C 0.750000 0.625000 0.875000
C 0.875000 0.500000 0.875000
C 0.937500 0.562500 0.937500
C 0.937500 0.687500 0.812500
C 0.812500 0.687500 0.937500
C 0.750000 0.750000 0.000000
C 0.812500 0.812500 0.062500
C 0.875000 0.875000 0.000000
C 0.750000 0.875000 0.125000
C 0.875000 0.750000 0.125000
C 0.937500 0.812500 0.187500
C 0.937500 0.937500 0.062500
C 0.812500 0.937500 0.187500
C 0.750000 0.750000 0.250000
C 0.812500 0.812500 0.312500
C 0.875000 0.875000 0.250000
C 0.750000 0.875000 0.375000
C 0.875000 0.750000 0.375000
C 0.937500 0.812500 0.437500
C 0.937500 0.937500 0.312500
C 0.812500 0.937500 0.437500
C 0.750000 0.750000 0.500000
C 0.812500 0.812500 0.562500
C 0.875000 0.875000 0.500000
C 0.750000 0.875000 0.625000
C 0.875000 0.750000 0.625000
C 0.937500 0.812500 0.687500
C 0.937500 0.937500 0.562500
C 0.812500 0.937500 0.687500
C 0.750000 0.750000 0.750000
C 0.812500 0.812500 0.812500
C 0.875000 0.875000 0.750000
C 0.750000 0.875000 0.875000
C 0.875000 0.750000 0.875000
C 0.937500 0.812500 0.937500
C 0.937500 0.937500 0.812500
C 0.812500 0.937500 0.937500

K_POINTS automatic
2 2 2 1 1 1
